Tried aggregator 2 times.
MIP Presolve eliminated 8 rows and 8 columns.
Aggregator did 4 substitutions.
Reduced MIP has 105097 rows, 140132 columns, and 350324 nonzeros.
Reduced MIP has 35032 binaries, 0 generals, 0 SOSs, and 0 indicators.
Presolve time = 0.32 sec. (224.68 ticks)
Found incumbent of value 3170.152196 after 0.81 sec. (678.91 ticks)
Probing time = 0.18 sec. (6.64 ticks)
Tried aggregator 1 time.
Reduced MIP has 105097 rows, 140132 columns, and 350324 nonzeros.
Reduced MIP has 35032 binaries, 0 generals, 0 SOSs, and 0 indicators.
Presolve time = 0.48 sec. (189.91 ticks)
Probing time = 0.06 sec. (6.24 ticks)
MIP emphasis: balance optimality and feasibility.
MIP search method: dynamic search.
Parallel mode: deterministic, using up to 20 threads.
Root relaxation solution time = 1.46 sec. (1017.17 ticks)

        Nodes                                         Cuts/
   Node  Left     Objective  IInf  Best Integer    Best Bound    ItCnt     Gap

*     0+    0                         3170.1522   1.41310e+07              --- 
*     0+    0                       123109.8108   1.41310e+07              --- 
      0     0  3840619.5230  1420   123109.8108  3840619.5230    14767     --- 
*     0+    0                      3716881.9910  3840619.5230             3.33%
      0     0  3823500.4187   608  3716881.9910    Cuts: 2604    15628    2.87%
      0     0  3822006.8830   527  3716881.9910    Cuts: 1754    16373    2.83%
*     0+    0                      3718503.8470  3822006.8830             2.78%
      0     0  3818636.5019   563  3718503.8470    Cuts: 1450    17077    2.69%
      0     0  3809729.8506   413  3718503.8470    Cuts: 1434    17729    2.45%
*     0+    0                      3719158.4676  3809729.8506             2.44%
      0     0  3807206.8310   290  3719158.4676     Cuts: 593    18052    2.37%
      0     0  3806637.6630   267  3719158.4676     Cuts: 273    18214    2.35%
      0     0  3806462.6165   232  3719158.4676     Cuts: 101    18272    2.35%
*     0+    0                      3720332.0726  3806462.6165             2.32%
      0     0  3806113.3064   221  3720332.0726      Cuts: 69    18306    2.31%
      0     0  3806043.1525   209  3720332.0726   MIRcuts: 12    18314    2.30%
      0     0  3806040.7546   211  3720332.0726       Cuts: 3    18319    2.30%
      0     0  3806012.6717   207  3720332.0726    MIRcuts: 7    18326    2.30%
*     0+    0                      3786506.5296  3806012.6717             0.52%
*     0+    0                      3787573.6344  3806012.6717             0.49%
      0     2  3806012.6717   207  3787573.6344  3806012.6717    18326    0.49%
Elapsed time = 15.75 sec. (11209.13 ticks, tree = 0.01 MB, solutions = 8)
      4     6  3805961.6568   204  3787573.6344  3806010.1047    18335    0.49%
      5     7  3805915.5943   205  3787573.6344  3806010.1047    18338    0.49%
      7     9  3805959.2338   204  3787573.6344  3806010.1047    18346    0.49%
      8    10  3805913.7961   205  3787573.6344  3806010.1047    18347    0.49%
      9    11  3805811.9766   205  3787573.6344  3806010.1047    18354    0.49%
     10    12  3805911.1645   205  3787573.6344  3806010.1047    18356    0.49%
     11    13  3806005.2962   203  3787573.6344  3806005.3861    18358    0.49%
     12    14  3805958.5517   204  3787573.6344  3806005.3861    18359    0.49%
     13    15  3805906.1062   205  3787573.6344  3806005.3861    18360    0.49%
    126   128  3805985.6152   201  3787573.6344  3805990.8752    18605    0.49%
Elapsed time = 17.49 sec. (12176.83 ticks, tree = 0.01 MB, solutions = 8)
*   377+  377                      3787686.5788  3805990.8752             0.48%
    468   470  3805803.6783   199  3787686.5788  3805990.8752    19512    0.48%
    469   471  3805775.0782   198  3787686.5788  3805990.8752    19513    0.48%
    470   472  3805786.4563   201  3787686.5788  3805990.8752    19516    0.48%
    471   473  3805671.3775   200  3787686.5788  3805990.8752    19519    0.48%
    472   474  3805681.3264   201  3787686.5788  3805990.8752    19522    0.48%
    473   475  3805676.8965   201  3787686.5788  3805990.8752    19525    0.48%
    474   476  3805676.9743   201  3787686.5788  3805990.8752    19528    0.48%
    475   477  3805389.8238   202  3787686.5788  3805990.8752    19531    0.48%
    476   478  3805570.9498   199  3787686.5788  3805990.8752    19536    0.48%
    477   479  3805419.6956   202  3787686.5788  3805990.8752    19539    0.48%
Elapsed time = 19.97 sec. (13138.05 ticks, tree = 0.01 MB, solutions = 9)
    763   765  3805751.9302   196  3787686.5788  3805990.8752    20234    0.48%
    769   771  3805368.7794   198  3787686.5788  3805990.8752    20240    0.48%
    773   775  3805527.0834   191  3787686.5788  3805990.8752    20244    0.48%
    782   784  3805532.8666   194  3787686.5788  3805990.8752    20258    0.48%
    783   785  3805749.5354   196  3787686.5788  3805990.8752    20259    0.48%
    784   786  3805515.6652   196  3787686.5788  3805990.8752    20265    0.48%
    785   787  3805400.5658   195  3787686.5788  3805990.8752    20271    0.48%
    786   788  3805410.5147   196  3787686.5788  3805990.8752    20277    0.48%
    787   789  3805392.2467   196  3787686.5788  3805990.8752    20284    0.48%
    788   790  3805392.3245   196  3787686.5788  3805990.8752    20291    0.48%
Elapsed time = 22.48 sec. (14132.45 ticks, tree = 0.01 MB, solutions = 9)
   1135  1137  3805468.5377   198  3787686.5788  3805990.8752    21299    0.48%
   1136  1138  3805465.2491   198  3787686.5788  3805990.8752    21300    0.48%
   1155  1157  3805463.3156   197  3787686.5788  3805990.8752    21369    0.48%
   1156  1158  3805460.0269   197  3787686.5788  3805990.8752    21374    0.48%
   1161  1163  3805359.6978   197  3787686.5788  3805990.8752    21392    0.48%
   1163  1165  3805754.2347   196  3787686.5788  3805990.8752    21399    0.48%
   1175  1177  3805461.7854   197  3787686.5788  3805990.8752    21421    0.48%
   1176  1178  3805458.4968   197  3787686.5788  3805990.8752    21422    0.48%
   1181  1183  3805358.1677   197  3787686.5788  3805990.8752    21434    0.48%
   1183  1185  3805749.0126   195  3787686.5788  3805990.8752    21440    0.48%
Elapsed time = 26.23 sec. (15417.57 ticks, tree = 8.74 MB, solutions = 9)
   1544  1546  3805316.7567   197  3787686.5788  3805990.8752    22053    0.48%
   1546  1548  3805347.7750   197  3787686.5788  3805990.8752    22055    0.48%
   1560  1562  3805476.8380   196  3787686.5788  3805990.8752    22078    0.48%
   1561  1563  3805486.7868   197  3787686.5788  3805990.8752    22081    0.48%
   1562  1564  3805614.0255   197  3787686.5788  3805990.8752    22083    0.48%
   1563  1565  3805614.1032   197  3787686.5788  3805990.8752    22085    0.48%
   1564  1566  3805193.3184   197  3787686.5788  3805990.8752    22088    0.48%
   1566  1568  3805224.3367   197  3787686.5788  3805990.8752    22094    0.48%
   1580  1582  3805598.8327   196  3787686.5788  3805990.8752    22118    0.48%
   1581  1583  3805608.7816   197  3787686.5788  3805990.8752    22119    0.48%
Elapsed time = 29.70 sec. (16658.54 ticks, tree = 19.21 MB, solutions = 9)
*  1966+ 1966                      3787842.2813  3805990.8752             0.48%
   2028  2030  3805624.6797   189  3787842.2813  3805990.8752    22998    0.48%
   2040  2042  3805402.6595   192  3787842.2813  3805990.8752    23026    0.48%
   2041  2043  3805399.3709   192  3787842.2813  3805990.8752    23027    0.48%
   2043  2045  3804936.7778   190  3787842.2813  3805990.8752    23037    0.48%
   2046  2048  3805299.0418   192  3787842.2813  3805990.8752    23040    0.48%
   2048  2050  3805412.4432   188  3787842.2813  3805990.8752    23050    0.48%
   2058  2060  3805401.0589   193  3787842.2813  3805990.8752    23086    0.48%
   2059  2061  3805429.0525   191  3787842.2813  3805990.8752    23087    0.48%
   2060  2062  3805171.9642   191  3787842.2813  3805990.8752    23092    0.48%
   2061  2063  3805168.6756   191  3787842.2813  3805990.8752    23097    0.48%
Elapsed time = 33.10 sec. (17664.07 ticks, tree = 31.20 MB, solutions = 9)
*  2458+ 2458                      3787931.5791  3805990.8752             0.48%
   2458  2460  3805371.6576   191  3787931.5791  3805990.8752    24068    0.48%
   2478  2480  3805271.5866   189  3787931.5791  3805990.8752    24129    0.48%
   2498  2500  3805269.1938   189  3787931.5791  3805990.8752    24198    0.48%
   2518  2520  3805019.6848   188  3787931.5791  3805990.8752    24272    0.48%
   2538  2540  3805267.6619   189  3787931.5791  3805990.8752    24339    0.48%
   2558  2560  3805066.5732   188  3787931.5791  3805990.8752    24406    0.48%
   2568  2570  3805332.8255   194  3787931.5791  3805990.8752    24441    0.48%
   2569  2571  3804749.2449   189  3787931.5791  3805990.8752    24448    0.48%
   2573  2575  3805229.3425   194  3787931.5791  3805990.8752    24463    0.48%
   2574  2576  3805001.9924   193  3787931.5791  3805990.8752    24464    0.48%
Elapsed time = 38.02 sec. (18640.27 ticks, tree = 48.24 MB, solutions = 12)
   2638  2640  3804793.2660   187  3787931.5791  3805990.8752    24628    0.48%
   2658  2660  3805019.1468   189  3787931.5791  3805990.8752    24667    0.48%
*  2665+ 2665                      3788125.5967  3805990.8752             0.47%
   2678  2680  3804780.0695   188  3788125.5967  3805990.8752    24708    0.47%
   2698  2700  3804993.1421   189  3788125.5967  3805990.8752    24764    0.47%
   2718  2720  3804773.8056   188  3788125.5967  3805990.8752    24832    0.47%
   2738  2740  3804935.3907   188  3788125.5967  3805990.8752    24885    0.47%
   2758  2760  3804827.7512   189  3788125.5967  3805990.8752    24958    0.47%
   2778  2780  3804711.7402   187  3788125.5967  3805990.8752    25016    0.47%
   2798  2800  3804604.1007   188  3788125.5967  3805990.8752    25097    0.47%
   2818  2820  3804488.0897   186  3788125.5967  3805990.8752    25153    0.47%
Elapsed time = 39.61 sec. (19955.12 ticks, tree = 48.24 MB, solutions = 12)
   3350  3352  3803306.3440   183  3788125.5967  3805990.8752    26700    0.47%
   3370  3372  3803130.1030   182  3788125.5967  3805990.8752    26764    0.47%
   3390  3392  3803305.7710   183  3788125.5967  3805990.8752    26843    0.47%
   3410  3412  3803302.6180   183  3788125.5967  3805990.8752    26900    0.47%
   3430  3432  3803056.0016   182  3788125.5967  3805990.8752    26961    0.47%
   3450  3452  3803097.8483   183  3788125.5967  3805990.8752    27005    0.47%
   3467  3469  3803267.0673   183  3788125.5967  3805990.8752    27085    0.47%
   3470  3472  3803054.6621   182  3788125.5967  3805990.8752    27088    0.47%
   3485  3487  3803749.0084   184  3788125.5967  3805990.8752    27122    0.47%
   3486  3488  3802948.5795   182  3788125.5967  3805990.8752    27125    0.47%
Elapsed time = 44.07 sec. (20913.73 ticks, tree = 70.35 MB, solutions = 15)
   3707  3709  3802564.4766   180  3788125.5967  3805990.8752    27736    0.47%
   3710  3712  3802596.5156   180  3788125.5967  3805990.8752    27740    0.47%
   3711  3713  3802937.5074   183  3788125.5967  3805990.8752    27741    0.47%
   3713  3715  3802456.1638   181  3788125.5967  3805990.8752    27743    0.47%
   3727  3729  3802787.6531   182  3788125.5967  3805990.8752    27771    0.47%
   3730  3732  3802586.7954   181  3788125.5967  3805990.8752    27783    0.47%
   3731  3733  3802712.8303   182  3788125.5967  3805990.8752    27788    0.47%
   3733  3735  3802245.8860   180  3788125.5967  3805990.8752    27799    0.47%
   3747  3749  3802563.0556   180  3788125.5967  3805990.8752    27839    0.47%
   4580  4582  3802136.5125   179  3788125.5967  3805990.8752    29875    0.47%
Elapsed time = 54.64 sec. (24772.89 ticks, tree = 101.03 MB, solutions = 15)
*  5412+ 5412                      3788435.0604  3805990.8752             0.46%
*  5412+ 5412                      3788440.6321  3805990.8752             0.46%
*  5412+ 5412                      3788491.5257  3805990.8752             0.46%
*  5412+ 5412                      3788564.1232  3805990.8752             0.46%
*  5412+ 5412                      3788651.0025  3805990.8752             0.46%
   5412  5414  3801329.0084   175  3788651.0025  3805990.8752    32197    0.46%
*  5413+ 5413                      3788712.7444  3805990.8752             0.46%
*  5413+ 5413                      3788758.0715  3805990.8752             0.45%
   5413  5415  3801359.4347   174  3788758.0715  3805990.8752    32199    0.45%
*  5414+ 5414                      3788829.1347  3805990.8752             0.45%
   5414  5416  3800108.7007   167  3788829.1347  3805990.8752    32202    0.45%
   5415  5417  3799333.7995   142  3788829.1347  3805990.8752    32206    0.45%
   5416  5418  3800126.8296   156  3788829.1347  3805990.8752    32208    0.45%
   5417  5419  3800389.7364   155  3788829.1347  3805990.8752    32209    0.45%
   5418  5420  3800997.8532   164  3788829.1347  3805990.8752    32211    0.45%
   5419  5421  3800750.1882   162  3788829.1347  3805990.8752    32213    0.45%
   5420  5422  3800096.6112   168  3788829.1347  3805990.8752    32217    0.45%
   5421  5423  3799611.6526   150  3788829.1347  3805990.8752    32218    0.45%
Elapsed time = 81.55 sec. (40729.55 ticks, tree = 251.09 MB, solutions = 15)
   5431  5433  3799515.8697   170  3788829.1347  3805990.8752    32240    0.45%
*  5432+ 3621                      3790178.9933  3790465.3032             0.01%

Implied bound cuts applied:  161
Flow cuts applied:  71
Mixed integer rounding cuts applied:  4720
Lift and project cuts applied:  57
Gomory fractional cuts applied:  244

Root node processing (before b&c):
  Real time             =   15.15 sec. (11143.10 ticks)
Parallel b&c, 20 threads:
  Real time             =   98.23 sec. (63178.20 ticks)
  Sync time (average)   =   16.20 sec.
  Wait time (average)   =   17.09 sec.
                          ------------
Total (root+branch&cut) =  113.38 sec. (74321.31 ticks)
MKLROOT=/global/software/sl-6.x86_64/modules/langs/intel/2015.6.233/mkl
SLURM_NODELIST=n0086.savio1
SLURM_CHECKPOINT_IMAGE_DIR=/var/slurm/checkpoint
MANPATH=/global/software/sl-6.x86_64/modules/langs/julia/0.5.0/share/man:/global/software/sl-6.x86_64/modules/langs/intel/2015.6.233/man/en_US:/global/software/sl-6.x86_64/modules/langs/gcc/4.8.5/share/man:/usr/share/man
SLURM_JOB_NAME=aggregator
HOSTNAME=n0086.savio1
SLURM_NTASKS_PER_NODE=1
SLURM_TOPOLOGY_ADDR=ib-savio.ib-savio-03.n0086.savio1
SLURMD_NODENAME=n0086.savio1
SLURM_PRIO_PROCESS=0
SLURM_NODE_ALIASES=(null)
TERM=xterm-256color
SHELL=/bin/bash
HISTSIZE=1000
SLURM_JOB_QOS=savio_normal
SSH_CLIENT=10.142.114.66 53400 22
SLURM_TOPOLOGY_ADDR_PATTERN=switch.switch.node
TMPDIR=/tmp
LIBRARY_PATH=/global/software/sl-6.x86_64/modules/langs/julia/0.5.0/lib/julia:/global/software/sl-6.x86_64/modules/langs/intel/2015.6.233/mkl/lib/intel64:/global/software/sl-6.x86_64/modules/langs/gcc/4.8.5/lib64:/global/software/sl-6.x86_64/modules/langs/gcc/4.8.5/lib
GCC_DIR=/global/software/sl-6.x86_64/modules/langs/gcc/4.8.5
FPATH=/global/software/sl-6.x86_64/modules/langs/intel/2015.6.233/mkl/include/fftw:/global/software/sl-6.x86_64/modules/langs/intel/2015.6.233/mkl/include
SSH_TTY=/dev/pts/145
USER=jdlara
SLURM_NNODES=1
LD_LIBRARY_PATH=/global/software/sl-6.x86_64/modules/langs/julia/0.5.0/lib/julia:/global/software/sl-6.x86_64/modules/langs/intel/2015.6.233/mkl/lib/intel64:/global/software/sl-6.x86_64/modules/langs/gcc/4.8.5/lib64:/global/software/sl-6.x86_64/modules/langs/gcc/4.8.5/lib:/global/home/users/jdlara/gurobi652/linux64/lib
LS_COLORS=rs=0:di=38;5;27:ln=38;5;51:mh=44;38;5;15:pi=40;38;5;11:so=38;5;13:do=38;5;5:bd=48;5;232;38;5;11:cd=48;5;232;38;5;3:or=48;5;232;38;5;9:mi=05;48;5;232;38;5;15:su=48;5;196;38;5;15:sg=48;5;11;38;5;16:ca=48;5;196;38;5;226:tw=48;5;10;38;5;16:ow=48;5;10;38;5;21:st=48;5;21;38;5;15:ex=38;5;34:*.tar=38;5;9:*.tgz=38;5;9:*.arj=38;5;9:*.taz=38;5;9:*.lzh=38;5;9:*.lzma=38;5;9:*.tlz=38;5;9:*.txz=38;5;9:*.zip=38;5;9:*.z=38;5;9:*.Z=38;5;9:*.dz=38;5;9:*.gz=38;5;9:*.lz=38;5;9:*.xz=38;5;9:*.bz2=38;5;9:*.tbz=38;5;9:*.tbz2=38;5;9:*.bz=38;5;9:*.tz=38;5;9:*.deb=38;5;9:*.rpm=38;5;9:*.jar=38;5;9:*.rar=38;5;9:*.ace=38;5;9:*.zoo=38;5;9:*.cpio=38;5;9:*.7z=38;5;9:*.rz=38;5;9:*.jpg=38;5;13:*.jpeg=38;5;13:*.gif=38;5;13:*.bmp=38;5;13:*.pbm=38;5;13:*.pgm=38;5;13:*.ppm=38;5;13:*.tga=38;5;13:*.xbm=38;5;13:*.xpm=38;5;13:*.tif=38;5;13:*.tiff=38;5;13:*.png=38;5;13:*.svg=38;5;13:*.svgz=38;5;13:*.mng=38;5;13:*.pcx=38;5;13:*.mov=38;5;13:*.mpg=38;5;13:*.mpeg=38;5;13:*.m2v=38;5;13:*.mkv=38;5;13:*.ogm=38;5;13:*.mp4=38;5;13:*.m4v=38;5;13:*.mp4v=38;5;13:*.vob=38;5;13:*.qt=38;5;13:*.nuv=38;5;13:*.wmv=38;5;13:*.asf=38;5;13:*.rm=38;5;13:*.rmvb=38;5;13:*.flc=38;5;13:*.avi=38;5;13:*.fli=38;5;13:*.flv=38;5;13:*.gl=38;5;13:*.dl=38;5;13:*.xcf=38;5;13:*.xwd=38;5;13:*.yuv=38;5;13:*.cgm=38;5;13:*.emf=38;5;13:*.axv=38;5;13:*.anx=38;5;13:*.ogv=38;5;13:*.ogx=38;5;13:*.aac=38;5;45:*.au=38;5;45:*.flac=38;5;45:*.mid=38;5;45:*.midi=38;5;45:*.mka=38;5;45:*.mp3=38;5;45:*.mpc=38;5;45:*.ogg=38;5;45:*.ra=38;5;45:*.wav=38;5;45:*.axa=38;5;45:*.oga=38;5;45:*.spx=38;5;45:*.xspf=38;5;45:
CPATH=/global/software/sl-6.x86_64/modules/langs/julia/0.5.0/include:/global/software/sl-6.x86_64/modules/langs/intel/2015.6.233/mkl/include/fftw:/global/software/sl-6.x86_64/modules/langs/intel/2015.6.233/mkl/include:/global/software/sl-6.x86_64/modules/langs/gcc/4.8.5/include
SLURM_JOBID=1269736
SLURM_NTASKS=1
NLSPATH=/global/software/sl-6.x86_64/modules/langs/intel/2015.6.233/mkl/lib/intel64/locale/en_US
MAIL=/var/spool/mail/jdlara
PATH=/global/software/sl-6.x86_64/modules/langs/julia/0.5.0/bin:/global/software/sl-6.x86_64/modules/langs/gcc/4.8.5/bin:/usr/local/bin:/bin:/usr/bin:/usr/local/sbin:/usr/sbin:/sbin:/global/home/groups/allhands/bin:/global/home/users/jdlara/gurobi652/linux64/bin:/global/home/users/jdlara/bin:/global/home/users/jdlara/gurobi652/linux64/bin
SLURM_TASKS_PER_NODE=20
SLURM_CPUS_PER_TASK=1
SLURM_JOB_ID=1269736
PWD=/global/home/users/jdlara/Julia_testcodes/aggregator_model
SLURM_JOB_USER=jdlara
_LMFILES_=/global/software/sl-6.x86_64/modfiles/langs/gcc/4.8.5:/global/software/sl-6.x86_64/modfiles/gcc/4.8.5/mkl/2015.6.233:/global/software/sl-6.x86_64/modfiles/langs/julia/0.5.0
CUDA_VISIBLE_DEVICES=NoDevFiles
MODULEPATH=/global/software/sl-6.x86_64/modfiles/tools:/global/software/sl-6.x86_64/modfiles/langs:/global/software/sl-6.x86_64/modfiles/julia/0.5.0:/global/software/sl-6.x86_64/modfiles/gcc/4.8.5
LOADEDMODULES=gcc/4.8.5:mkl/2015.6.233:julia/0.5.0
SLURM_JOB_UID=42745
SLURM_NODEID=0
SLURM_SUBMIT_DIR=/global/home/users/jdlara/Julia_testcodes/aggregator_model
SLURM_NPROCS=1
SLURM_TASK_PID=44314
LM_LICENSE_FILE=28518@lmgr0.hpcs.lbl.gov
SLURM_CPUS_ON_NODE=20
JULIA_DIR=/global/software/sl-6.x86_64/modules/langs/julia/0.5.0
ALLHANDS_BASHRC=1
HISTCONTROL=ignoredups
ENVIRONMENT=BATCH
SLURM_PROCID=0
MKL_DIR=/global/software/sl-6.x86_64/modules/langs/intel/2015.6.233/mkl
SLURM_JOB_NODELIST=n0086.savio1
SHLVL=3
HOME=/global/home/users/jdlara
SLURM_LOCALID=0
SLURM_CLUSTER_NAME=brc
SLURM_JOB_CPUS_PER_NODE=20
SLURM_SUBMIT_HOST=n0011.savio1
SLURM_GTIDS=0
SLURM_JOB_PARTITION=savio
LOGNAME=jdlara
CVS_RSH=ssh
SSH_CONNECTION=10.142.114.66 53400 10.0.0.23 22
SLURM_JOB_ACCOUNT=fc_emac
GPU_DEVICE_ORDINAL=NoDevFiles
MODULESHOME=/usr/Modules
SLURM_JOB_NUM_NODES=1
LESSOPEN=||/usr/bin/lesspipe.sh %s
INFOPATH=/global/software/sl-6.x86_64/modules/langs/gcc/4.8.5/share/info
INCLUDE=/global/software/sl-6.x86_64/modules/langs/julia/0.5.0/include:/global/software/sl-6.x86_64/modules/langs/intel/2015.6.233/mkl/include/fftw:/global/software/sl-6.x86_64/modules/langs/intel/2015.6.233/mkl/include:/global/software/sl-6.x86_64/modules/langs/gcc/4.8.5/include
G_BROKEN_FILENAMES=1
SLURM_MEM_PER_NODE=64000
BASH_FUNC_module()=() {  logger "$HOSTNAME $USER: module $*";
 eval `/usr/Modules/bin/modulecmd bash $*`
}
_=/bin/env
